GLPSOL--GLPK LP/MIP Solver 5.0
Parameter(s) specified in the command line:
 --lp ../modeles/2_209.lp --log 2_209.log
Reading problem data from '../modeles/2_209.lp'...
427 rows, 840 columns, 2936 non-zeros
418 integer variables, all of which are binary
1275 lines were read
GLPK Integer Optimizer 5.0
427 rows, 840 columns, 2936 non-zeros
418 integer variables, all of which are binary
Preprocessing...
412 constraint coefficient(s) were reduced
427 rows, 838 columns, 2934 non-zeros
418 integer variables, all of which are binary
Scaling...
 A: min|aij| =  9.157e-05  max|aij| =  4.000e+00  ratio =  4.368e+04
GM: min|aij| =  6.917e-02  max|aij| =  1.446e+01  ratio =  2.090e+02
EQ: min|aij| =  4.785e-03  max|aij| =  1.000e+00  ratio =  2.090e+02
2N: min|aij| =  3.906e-03  max|aij| =  1.772e+00  ratio =  4.537e+02
Constructing initial basis...
Size of triangular part is 427
Solving LP relaxation...
GLPK Simplex Optimizer 5.0
427 rows, 838 columns, 2934 non-zeros
      0: obj =   4.000000000e+00 inf =   9.500e+00 (5)
     29: obj =   4.999198718e-01 inf =   0.000e+00 (0)
*   116: obj =  -1.414085736e+00 inf =   0.000e+00 (0)
OPTIMAL LP SOLUTION FOUND
Integer optimization begins...
Long-step dual simplex will be used
+   116: mip =     not found yet >=              -inf        (1; 0)
+   359: >>>>>  -1.414085736e+00 >=  -1.414085736e+00   0.0% (243; 0)
+   359: mip =  -1.414085736e+00 >=     tree is empty   0.0% (0; 485)
INTEGER OPTIMAL SOLUTION FOUND
Time used:   0.1 secs
Memory used: 1.3 Mb (1348512 bytes)
